
  32    4
  10   10   10   10

   0   0   0   0   0   5 2 28 29 30 31 
   7   1   1   1   0   1 3 
  10   4   5   6   0   2 27 4 
   5   3   6   0   1   1 5 
   8   6   2   0   4   1 6 
   6   3   0   4   2   1 7 
   8   5   5   0   4   2 26 8 
  10   8   2   3   0   1 9 
  10   4   0   3   2   1 10 
   9   4   9   0   3   1 11 
   7   4   5   0   6   1 12 
   4   0   6   2   4   1 13 
   7   2   0   5   6   1 14 
   3   0   2   3   4   1 15 
   3   6   0   5   7   1 16 
   2   0   4   7   3   1 17 
   5   2   4   2   0   1 18 
   6   1   6   0   3   1 19 
   7   7   7   0   7   1 20 
   7   8   0   6   3   1 21 
   4   6   2   4   0   1 22 
   8   1   3   0   3   1 23 
   4   4   3   5   0   1 24 
   1   0   4   6   5   1 25 
   7   6   4   0   2   1 32
   5   4   5   4   0   1 32
   1   0   2   6   6   1 32
  10   0   2   2   6   1 32
   6   3   0   5   3   1 32
   2   2   3   3   0   1 32
   9   2   0   2   4   1 32
   0   0   0   0   0   0 
